
******************************************************************************
This program contains Ipopt, a library for large-scale nonlinear optimization.
 Ipopt is released as open source code under the Eclipse Public License (EPL).
         For more information visit http://projects.coin-or.org/Ipopt
******************************************************************************

This is Ipopt version 3.12.6, running with linear solver ma57.

Number of nonzeros in equality constraint Jacobian...:    10288
Number of nonzeros in inequality constraint Jacobian.:        0
Number of nonzeros in Lagrangian Hessian.............:     9052

Total number of variables............................:     5144
                     variables with only lower bounds:      241
                variables with lower and upper bounds:        4
                     variables with only upper bounds:        0
Total number of equality constraints.................:     3844
Total number of inequality constraints...............:        0
        inequality constraints with only lower bounds:        0
   inequality constraints with lower and upper bounds:        0
        inequality constraints with only upper bounds:        0

iter    objective    inf_pr   inf_du lg(mu)  ||d||  lg(rg) alpha_du alpha_pr  ls
   0  9.7589566e+01 9.78e+00 9.36e-01  -1.0 0.00e+00    -  0.00e+00 0.00e+00   0
   1  9.7658304e+01 9.75e+00 1.16e+00  -1.0 6.55e+00    -  1.53e-03 2.57e-03f  1
   2  1.7346449e+02 7.48e+00 3.38e+01  -1.0 8.15e+00    -  3.33e-03 2.33e-01h  1
   3  1.7514808e+02 7.45e+00 2.46e+01  -1.0 9.21e+00    -  4.99e-02 4.44e-03h  1
   4  3.6574556e+02 5.44e+00 1.36e+02  -1.0 1.02e+01    -  3.72e-02 2.70e-01h  1
   5  4.0357940e+02 4.85e+00 1.27e+02  -1.0 9.20e+00    -  8.35e-02 1.08e-01h  1
   6  6.7458962e+02 1.52e-06 6.69e+00  -1.0 5.70e+00    -  6.75e-02 1.00e+00h  1
   7  6.2204377e+02 1.92e-07 4.38e+00  -1.0 5.99e+00    -  2.50e-01 9.16e-01f  1
   8  6.1828495e+02 6.16e-08 2.03e+00  -1.7 2.42e+00    -  5.34e-01 6.79e-01f  1
   9  6.1700461e+02 4.00e-09 1.30e+00  -1.7 1.50e+00    -  3.60e-01 1.00e+00f  1
iter    objective    inf_pr   inf_du lg(mu)  ||d||  lg(rg) alpha_du alpha_pr  ls
  10  6.1645724e+02 5.79e-10 6.07e-01  -1.7 1.91e+00    -  5.31e-01 1.00e+00f  1
  11  6.1592966e+02 1.78e-15 2.45e-01  -2.5 1.10e+00    -  5.94e-01 1.00e+00f  1
  12  6.1584575e+02 1.44e-10 8.03e-04  -2.5 4.07e-01    -  1.00e+00 1.00e+00f  1
  13  6.1578923e+02 5.41e-11 5.48e-05  -3.8 5.54e-02    -  1.00e+00 1.00e+00f  1
  14  6.1578438e+02 1.78e-15 1.01e-05  -5.7 2.54e-02    -  1.00e+00 1.00e+00f  1
  15  6.1578423e+02 1.78e-15 9.19e-07  -5.7 8.04e-03    -  1.00e+00 1.00e+00f  1
  16  6.1578422e+02 1.89e-13 1.83e-08  -5.7 1.18e-03    -  1.00e+00 1.00e+00f  1
  17  6.1578420e+02 1.55e-15 1.72e-10  -8.6 1.13e-04    -  1.00e+00 1.00e+00f  1
  18  6.1578420e+02 1.43e-15 1.12e-13  -9.0 3.44e-07    -  1.00e+00 1.00e+00h  1

Number of Iterations....: 18

                                   (scaled)                 (unscaled)
Objective...............:   6.1578419998297045e+02    6.1578419998297045e+02
Dual infeasibility......:   1.1184835609773236e-13    1.1184835609773236e-13
Constraint violation....:   1.4294121442048890e-15    1.4294121442048890e-15
Complementarity.........:   9.0924861499734824e-10    9.0924861499734824e-10
Overall NLP error.......:   9.0924861499734824e-10    9.0924861499734824e-10


Number of objective function evaluations             = 19
Number of objective gradient evaluations             = 19
Number of equality constraint evaluations            = 19
Number of inequality constraint evaluations          = 0
Number of equality constraint Jacobian evaluations   = 19
Number of inequality constraint Jacobian evaluations = 0
Number of Lagrangian Hessian evaluations             = 18
Total CPU secs in IPOPT (w/o function evaluations)   =      0.223
Total CPU secs in NLP function evaluations           =      0.063

EXIT: Optimal Solution Found.

************************ CUTEst statistics ************************


 Package used            :  IPOPT
 Problem                 :  GRIDNETG  
 # variables             =            7564
 # constraints           =            3844
 # objective functions   =        0.3900000E+02
 # objective gradients   =        0.2000000E+02
 # objective Hessians    =        0.1900000E+02
 # Hessian-vector prdct  =        0.0000000E+00
 # constraints functions =        0.4000000E+02
 # constraints gradients =        0.2100000E+02
 # constraints Hessians  =        0.1900000E+02
 Exit code               =               0
 Final f                 =   0.6157842E+03
 Set up time             =            0.10 seconds
 Solve time              =            0.38 seconds


******************************************************************

System Time =       0.2820000052 s.
